
Gurobi 11.0.3 (linux64) logging started Wed Apr 15 06:51:39 2026

Set parameter LogFile to value "tree/results/htds/htds_depth-4_run-3/Full MIP/LogFile_FullModel.txt"
Gurobi Optimizer version 11.0.3 build v11.0.3rc0 (linux64 - "CentOS Linux 7 (Core)")

CPU model: Intel(R) Xeon(R) Platinum 8260 CPU @ 2.40GHz, instruction set [SSE2|AVX|AVX2|AVX512]
Thread count: 96 physical cores, 192 logical processors, using up to 32 threads

Optimize a model with 48073 rows, 29754 columns and 883487 nonzeros
Model fingerprint: 0x074b4e29
Model has 3600 general constraints
Variable types: 18604 continuous, 11150 integer (11150 binary)
Coefficient statistics:
  Matrix range     [4e-04, 1e+04]
  Objective range  [4e-03, 1e+04]
  Bounds range     [4e-01, 1e+03]
  RHS range        [1e-04, 2e+03]

User MIP start produced solution with objective -3699.32 (0.29s)
Loaded user MIP start with objective -3699.32

Presolve added 3584 rows and 14400 columns
Presolve time: 1.55s
Presolved: 51657 rows, 44154 columns, 912239 nonzeros
Presolved model has 14400 SOS constraint(s)
Variable types: 18604 continuous, 25550 integer (25550 binary)

Deterministic concurrent LP optimizer: primal simplex, dual simplex, and barrier
Showing barrier log only...

Root relaxation presolved: 51657 rows, 44154 columns, 912239 nonzeros

Root barrier log...

Ordering time: 0.05s

Barrier statistics:
 Dense cols : 285
 AA' NZ     : 9.290e+05
 Factor NZ  : 3.794e+06 (roughly 70 MB of memory)
 Factor Ops : 3.069e+08 (less than 1 second per iteration)
 Threads    : 30

                  Objective                Residual
Iter       Primal          Dual         Primal    Dual     Compl     Time
   0  -7.85362110e+04  7.01065726e+08  1.80e+04 1.11e-14  7.76e+05     3s
   1  -2.74987751e+04  1.11446655e+09  4.08e+03 8.13e+01  2.30e+05     3s
   2  -5.70545789e+03  1.05617927e+09  5.92e+02 1.34e+01  4.00e+04     4s
   3  -2.41186914e+03  3.92252538e+08  7.18e+01 1.41e+00  5.98e+03     4s
   4  -1.76300225e+03  6.06466048e+07  3.40e+00 1.66e-01  7.42e+02     4s
   5  -4.21971452e+02  1.40048282e+07  2.84e-01 3.33e-02  1.56e+02     4s
   6  -4.17839381e+01  1.47686809e+06  2.82e-02 3.31e-03  1.60e+01     5s
   7  -3.27450309e+00  1.50501100e+05  3.23e-03 3.37e-04  1.63e+00     5s
   8   5.75704990e-01  1.70359190e+04  6.53e-04 3.82e-05  1.84e-01     5s
   9   9.53374507e-01  1.75031433e+03  6.47e-05 3.89e-06  1.89e-02     5s
  10   9.95330368e-01  1.76089908e+02  6.41e-06 3.89e-07  1.89e-03     5s
  11   9.99532936e-01  1.86760734e+01  6.35e-07 3.90e-08  1.91e-04     5s
  12   9.99953294e-01  2.76760852e+00  6.35e-08 3.90e-09  1.91e-05     6s
  13   9.99995329e-01  1.17844757e+00  6.30e-09 3.90e-10  1.92e-06     6s
  14   9.99999533e-01  1.01784476e+00  6.30e-10 3.90e-11  1.92e-07     6s
  15   9.99999953e-01  1.00180145e+00  6.26e-11 3.91e-12  1.94e-08     6s
  16   9.99999995e-01  1.00018015e+00  6.48e-12 3.91e-13  1.94e-09     6s
  17   1.00000000e+00  1.00001802e+00  1.02e-12 3.90e-14  1.94e-10     7s
  18   1.00000000e+00  1.00000180e+00  4.55e-13 1.42e-14  1.94e-11     7s
  19   1.00000000e+00  1.00000018e+00  4.55e-13 3.90e-16  1.94e-12     7s
  20   1.00000000e+00  1.00000002e+00  4.55e-13 3.90e-17  1.94e-13     7s

Barrier solved model in 20 iterations and 7.26 seconds (4.12 work units)
Optimal objective 1.00000000e+00


Root crossover log...

    2261 DPushes remaining with DInf 0.0000000e+00                 7s
       0 DPushes remaining with DInf 0.0000000e+00                 7s

   18000 PPushes remaining with PInf 0.0000000e+00                 7s
       0 PPushes remaining with PInf 0.0000000e+00                 8s

  Push phase complete: Pinf 0.0000000e+00, Dinf 0.0000000e+00      8s


Root simplex log...

Iteration    Objective       Primal Inf.    Dual Inf.      Time
   18004    1.0000000e+00   0.000000e+00   0.000000e+00      8s
   18004    1.0000000e+00   0.000000e+00   0.000000e+00      8s
Concurrent spin time: 0.00s

Solved with barrier

Root relaxation: objective 1.000000e+00, 18004 iterations, 5.85 seconds (3.63 work units)
Total elapsed time = 30.55s (DegenMoves)

    Nodes    |    Current Node    |     Objective Bounds      |     Work
 Expl Unexpl |  Obj  Depth IntInf | Incumbent    BestBd   Gap | It/Node Time

     0     0    1.00000    0 2589 -3699.3244    1.00000   100%     -   30s
     0     2    1.00000    0 2589 -3699.3244    1.00000   100%     -  132s
H    1     4                    -3699.324443    1.00000   100% 13251  162s
     3     8    1.00000    2 2046 -3699.3244    1.00000   100%  7017  194s
     7    16    1.00000    3 1874 -3699.3244    1.00000   100%  3805  212s
    15    32    1.00000    4  105 -3699.3244    1.00000   100%  2344  245s
H   31    64                       0.6755556    1.00000  48.0%  1667  305s
    63    96    1.00000    6  103    0.67556    1.00000  48.0%  1172  377s
    95   128    1.00000    7  102    0.67556    1.00000  48.0%  1818  452s
   127   160    1.00000    8  101    0.67556    1.00000  48.0%  1447  459s
   159   192    1.00000    9  100    0.67556    1.00000  48.0%  1226  638s
   191   224    1.00000   10   99    0.67556    1.00000  48.0%  1042  786s
   223   418    1.00000   11   99    0.67556    1.00000  48.0%   904 1566s
   417  1582    1.00000   18   92    0.67556    1.00000  48.0%   599 3600s

Explored 1581 nodes (505411 simplex iterations) in 3600.48 seconds (6149.31 work units)
Thread count was 32 (of 192 available processors)

Solution count 3: 0.675556 -3699.32 -3699.32 

Time limit reached
Best objective 6.755555555556e-01, best bound 1.000000000000e+00, gap 48.0263%

User-callback calls 2935912, time in user-callback 20.24 sec
